\* Problem: BM23 *\

Minimize
 R100: + 3 C101 + 2 C102 + 5 C103 + 8 C104 + 6 C105 + 9 C106 + 7 C107
 + 4 C108 + 5 C109 + 6 C110 + 3 C111 + 2 C112 + 4 C113 + 5 C114 + 8 C115
 + 7 C116 + 3 C117 + 5 C118 + 2 C119 + 4 C120 + 3 C121 + 2 C122 + 5 C123
 + 6 C124 + 8 C125 + C126 + C127

Subject To
 R101: + 2 C101 + 6 C102 + C103 + 3 C105 + 3 C106 + 2 C107 + 6 C108
 + 2 C109 + 2 C110 + 5 C111 + 3 C112 + 3 C113 + 7 C114 + 9 C115 + 4 C116
 + 2 C117 + 2 C118 + 3 C119 + 4 C120 + 9 C121 + 9 C122 + 9 C123 + 2 C124
 + 8 C125 + 6 C126 + 5 C127 <= 65
 R102: - 6 C101 + 5 C102 - 8 C103 - 3 C104 - C106 - 3 C107 - 8 C108
 - 9 C109 + 3 C110 - 8 C111 + 6 C112 - 3 C113 - 8 C114 - 6 C115 + 7 C116
 + 6 C117 - 2 C118 + 3 C119 - 7 C120 + 4 C121 + 5 C122 + 5 C123 + 5 C124
 - 3 C125 + 3 C126 <= -15
 R103: + 5 C101 - 6 C102 - 5 C103 - 3 C104 - 8 C105 + 8 C106 - 9 C107
 - 2 C108 + 9 C110 - C111 + 7 C112 + 9 C113 - 9 C114 + 4 C115 + 2 C116
 - 2 C117 - 9 C118 - 3 C120 + 3 C121 - 4 C123 + 7 C124 - C125 + 4 C126
 - 6 C127 <= -10
 R104: - 9 C101 - 5 C102 + 9 C104 - C105 + 8 C106 - 3 C107 + 9 C108
 + 9 C109 + 3 C110 - 7 C112 + 5 C113 + 4 C114 - 9 C115 - C116 - 9 C117
 + 7 C118 - 3 C119 - 7 C120 + 4 C121 + C122 - C123 + C124 + 3 C125 <= 32
 R105: + 8 C101 - 7 C102 + 4 C103 + 5 C104 + 9 C105 - C106 + 7 C107
 + C108 - 3 C109 + 2 C110 - 3 C112 - 5 C113 + 9 C114 + 7 C115 + 2 C116
 + 5 C117 + 4 C118 - 7 C119 - 9 C120 + 3 C121 + 2 C122 - 6 C123 + 8 C124
 + 6 C125 - 8 C126 - 9 C127 <= 14
 R106: + 7 C101 + 5 C102 + 2 C103 + 6 C105 + 6 C106 + 7 C107 + 6 C108
 - 7 C109 - 7 C110 - C111 - 8 C112 - 3 C113 + 9 C114 + C115 - 6 C116
 + 6 C117 + 6 C118 + C119 + C120 + 6 C121 - 3 C122 + 5 C123 + 5 C125
 + 6 C126 - 8 C127 <= 33
 R107: - C101 + 3 C102 + 3 C103 + 4 C104 + C105 + 4 C107 - C108 - 6 C109
 + 8 C111 + C113 - 5 C114 - 4 C115 - C116 - 9 C117 - 7 C118 + 2 C119
 + 2 C120 + C121 - 3 C122 + 7 C123 + 8 C124 - 5 C125 - 2 C126 - C127
 <= -5
 R108: - C101 + 2 C102 - 6 C103 - 9 C104 + 7 C106 - 9 C107 + 9 C108
 + 6 C109 - 4 C110 + 5 C111 + 3 C112 + C113 - 3 C114 - 9 C115 - C116
 - 6 C117 - 8 C118 - 9 C119 - 9 C120 + 8 C121 + 5 C122 + 5 C124 + 8 C125
 - 3 C126 - C127 <= 3
 R109: + 4 C101 - 6 C102 - 7 C103 - 2 C104 - 2 C105 - 6 C107 - 6 C108
 + 7 C109 - 4 C110 + 2 C112 + 8 C113 + 4 C115 - 4 C116 + 3 C117 + 2 C118
 - 3 C119 + 4 C121 + 3 C122 + 7 C123 + 9 C124 + 8 C125 - 3 C126 + 8 C127
 <= 18
 R110: - C110 - C111 - C112 - C113 + C114 + C115 - C116 + C117 + C118
 + C119 + 2 C120 + 2 C121 + 2 C122 - 2 C123 + 2 C124 - 2 C125 - 2 C126
 + 2 C127 <= 10
 R111: - C101 + 3 C102 + 3 C103 - 4 C104 + 5 C105 + 5 C106 + 7 C107
 + 8 C108 - 8 C109 - C112 - 2 C113 + 4 C114 - 6 C115 + 6 C116 + 7 C117
 - 8 C118 + 8 C119 - C121 - 2 C122 - 4 C123 - 7 C124 - 7 C125 + 7 C126
 + 8 C127 <= 17
 R112: + 8 C101 + 5 C103 + 2 C105 + 6 C106 + 7 C107 + C108 - C109 + C110
 + 4 C111 - 5 C112 - 7 C113 - 8 C114 + 2 C115 - 8 C116 - 5 C117 - 5 C118
 + 9 C119 - C121 - 9 C122 - 3 C123 - 6 C124 - C125 + 5 C126 - 4 C127
 <= -5
 R113: - 2 C101 - 7 C102 - 8 C103 + 6 C104 - 2 C105 - 5 C106 - 9 C107
 - 2 C108 + 2 C109 - 8 C110 + C111 - 3 C112 + 5 C113 + 6 C114 - 8 C115
 + C116 + C117 - 9 C118 + 8 C119 + 3 C120 - 8 C122 - 3 C123 - 5 C124
 - 2 C125 - 2 C126 + 8 C127 <= 4
 R114: + 7 C101 + 9 C102 - 7 C103 - 5 C104 + C105 - 5 C106 - 5 C107
 + 4 C108 + 9 C109 + 3 C110 - 4 C111 + 7 C114 - 7 C115 - 9 C116 + 9 C118
 - 3 C119 - 9 C121 + 9 C123 - 6 C124 - 4 C126 + 9 C127 <= 21
 R115: + 7 C101 + C102 + 4 C103 - 3 C104 - 6 C106 - 3 C107 + 7 C108
 + 8 C109 + C110 - 6 C111 + 6 C112 + 8 C113 - 3 C114 + 8 C115 - 5 C116
 + C117 + 8 C118 + 4 C119 - 8 C120 - 3 C121 + 8 C122 - C123 + 5 C125
 + 2 C127 <= 24
 R116: + 3 C101 + 6 C102 + C103 - 3 C104 - 5 C105 + 6 C106 - 9 C107
 + 6 C108 + 3 C109 - 9 C110 - 6 C111 - 3 C112 - 6 C113 - 6 C114 + 6 C115
 + 2 C116 - 7 C117 - 6 C118 - 7 C120 - 4 C121 - 6 C122 + 5 C123 - 9 C124
 + 5 C125 + 4 C126 + 2 C127 <= -6
 R117: - 3 C101 - C102 + 6 C103 - 6 C104 + C105 - 2 C106 + 3 C108
 - 3 C109 + 3 C110 + 6 C111 - C112 + 6 C114 + 6 C115 + 8 C116 - 2 C117
 - 4 C118 + C119 + 6 C122 + C123 + C124 + 9 C125 - 7 C126 + C127 <= 17
 R118: + 5 C101 - 9 C102 - 5 C103 - 6 C106 + 7 C107 + C108 - C109
 + 7 C110 + 2 C111 - 6 C112 + 2 C113 - 2 C114 - 4 C115 - 5 C116 + 4 C117
 + 5 C118 - C119 - 8 C120 - 2 C121 - 2 C122 - 4 C123 + C124 - 2 C126
 + C127 <= -13
 R119: - 4 C101 + 4 C102 - 8 C103 - 5 C104 - 7 C105 - 7 C106 - 4 C107
 + 5 C108 - 8 C110 + 9 C111 + 9 C112 + 8 C114 - 8 C115 - 4 C116 - 8 C117
 + 7 C118 + 4 C119 - 6 C120 + 9 C121 + 5 C122 - 7 C123 + 3 C124 - 6 C125
 - 5 C127 <= -30
 R120: - 6 C101 + 8 C102 + 2 C103 - 8 C105 - 7 C106 - 6 C107 + 9 C109
 + 4 C110 - 8 C111 - 3 C113 + 3 C114 + 4 C116 - 6 C117 - 2 C118 + 3 C119
 + 5 C120 + 3 C121 - 4 C122 - 9 C123 + 9 C124 - 4 C125 - 5 C126 + C127
 <= 1

Bounds
 0 <= C101 <= 1
 0 <= C102 <= 1
 0 <= C103 <= 1
 0 <= C104 <= 1
 0 <= C105 <= 1
 0 <= C106 <= 1
 0 <= C107 <= 1
 0 <= C108 <= 1
 0 <= C109 <= 1
 0 <= C110 <= 1
 0 <= C111 <= 1
 0 <= C112 <= 1
 0 <= C113 <= 1
 0 <= C114 <= 1
 0 <= C115 <= 1
 0 <= C116 <= 1
 0 <= C117 <= 1
 0 <= C118 <= 1
 0 <= C119 <= 1
 0 <= C120 <= 1
 0 <= C121 <= 1
 0 <= C122 <= 1
 0 <= C123 <= 1
 0 <= C124 <= 1
 0 <= C125 <= 1
 0 <= C126 <= 1
 0 <= C127 <= 1

Generals
 C101
 C102
 C103
 C104
 C105
 C106
 C107
 C108
 C109
 C110
 C111
 C112
 C113
 C114
 C115
 C116
 C117
 C118
 C119
 C120
 C121
 C122
 C123
 C124
 C125
 C126
 C127

End
